p cnf 71 60
-1 2 3 4 5 6 7 8 17 18 30 31 32 33 34 47 48 49 50 58 59 62 -60 0 
-2 1 3 4 5 6 7 8 17 18 30 31 32 33 34 47 48 49 50 58 59 62 -60 0 
-3 1 2 4 5 6 7 8 17 18 30 31 32 33 34 47 48 49 50 58 59 62 -60 0 
-4 1 2 3 5 6 7 8 17 18 30 31 32 33 34 47 48 49 50 58 59 62 -60 0 
-5 1 2 3 4 6 7 8 17 18 30 31 32 33 34 47 48 49 50 58 59 62 -60 0 
-6 1 2 3 4 5 7 8 17 18 30 31 32 33 34 47 48 49 50 58 59 62 -60 0 
-7 1 2 3 4 5 6 8 17 18 30 31 32 33 34 47 48 49 50 58 59 62 -60 0 
-8 1 2 3 4 5 6 7 17 18 30 31 32 33 34 47 48 49 50 58 59 62 -60 0 
-9 42 -10 26 39 -11 14 24 -12 62 -60 0 
-13 -14 11 24 -15 -16 62 -60 0 
-17 1 2 3 4 5 6 7 8 18 30 31 32 33 34 47 48 49 50 58 59 62 -60 0 
-18 1 2 3 4 5 6 7 8 17 30 31 32 33 34 47 48 49 50 58 59 62 -60 0 
-19 63 0 
-20 36 38 40 -10 26 39 -21 62 -60 0 
-22 53 -23 62 -60 0 
-13 -24 11 14 -12 -25 62 -60 0 
-19 -26 10 39 62 -60 0 
-27 64 0 
-28 -29 65 -35 0 
-30 1 2 3 4 5 6 7 8 17 18 31 32 33 34 47 48 49 50 58 59 62 -60 0 
-31 1 2 3 4 5 6 7 8 17 18 30 32 33 34 47 48 49 50 58 59 62 -60 0 
-32 1 2 3 4 5 6 7 8 17 18 30 31 33 34 47 48 49 50 58 59 62 -60 0 
-33 1 2 3 4 5 6 7 8 17 18 30 31 32 34 47 48 49 50 58 59 62 -60 0 
-34 1 2 3 4 5 6 7 8 17 18 30 31 32 33 47 48 49 50 58 59 62 -60 0 
-35 62 -60 0 
-20 36 38 40 62 -60 0 
-36 20 38 40 62 -60 0 
-37 62 -60 0 
-38 20 36 40 -39 10 26 62 -60 0 
-40 20 36 38 62 -60 0 
-41 62 -60 0 
-42 9 62 -60 0 
-43 -23 65 -35 0 
-43 -23 66 0 
-44 66 0 
-45 67 0 
-46 -10 26 39 65 -35 0 
-47 1 2 3 4 5 6 7 8 17 18 30 31 32 33 34 48 49 50 58 59 62 -60 0 
-48 1 2 3 4 5 6 7 8 17 18 30 31 32 33 34 47 49 50 58 59 62 -60 0 
-49 1 2 3 4 5 6 7 8 17 18 30 31 32 33 34 47 48 50 58 59 62 -60 0 
-31 1 2 3 4 5 6 7 8 17 18 30 32 33 34 47 48 49 50 58 59 -15 62 -60 0 
-50 1 2 3 4 5 6 7 8 17 18 30 31 32 33 34 47 48 49 58 59 62 -60 0 
-51 52 62 -60 0 
-52 51 62 -60 0 
-53 22 -23 62 -60 0 
-54 -10 26 39 -15 63 0 
-55 61 -10 26 39 68 0 
-56 -57 62 -60 0 
-33 1 2 3 4 5 6 7 8 17 18 30 31 32 34 47 48 49 50 58 59 63 0 
-58 1 2 3 4 5 6 7 8 17 18 30 31 32 33 34 47 48 49 50 59 62 -60 0 
-2 1 3 4 5 6 7 8 17 18 30 31 32 33 34 47 48 49 50 58 59 -15 62 -60 0 
-1 2 3 4 5 6 7 8 17 18 30 31 32 33 34 47 48 49 50 58 59 -15 62 -60 0 
-6 1 2 3 4 5 7 8 17 18 30 31 32 33 34 47 48 49 50 58 59 -15 62 -60 0 
-4 1 2 3 5 6 7 8 17 18 30 31 32 33 34 47 48 49 50 58 59 -15 62 -60 0 
-59 1 2 3 4 5 6 7 8 17 18 30 31 32 33 34 47 48 49 50 58 62 -60 0 
-45 69 -43 0 
-60 -10 26 39 67 0 
-44 70 0 
-60 -10 26 39 71 0 
-61 55 65 -35 0 
